c FILE /home/rafael/Documents/HappySet/MIHS/inputs/happygen/output/graph_scale_free_k7_p0.5_v50_20241127_082505.txt
c SOURCE This is a scale-free graph formed for the happy graph colouring problem.
c DESCRIPTION It was generated using the problem generator of Rhyd Lewis
c
c GRAPH STATS
c Seed                             = -2136983785
c Number of Nodes                  = 50
c Number of colours k              = 7
c Number of pre-assignments        = 25
c Number of links per new node     = 5
c Density                          = 0.191837
c 
c The degrees of nodes 1 to 50, respectively, are as follows 
c [25, 23, 22, 21, 20, 20, 18, 15, 13, 13, 12, 11, 11, 11, 10, 10, 9, 9, 9, 9, 9, 8, 8, 8, 7, 7, 
c  6, 6, 6, 6, 6, 6, 6, 6, 6, 6, 6, 6, 5, 5, 5, 5, 5, 5, 5, 5, 5, 5, 5, 5] 
c  
p edge 50 235 7
e 1 2
e 1 3
e 1 4
e 1 5
e 1 6
e 1 7
e 1 8
e 1 11
e 1 12
e 1 13
e 1 14
e 1 15
e 1 16
e 1 18
e 1 21
e 1 23
e 1 25
e 1 32
e 1 33
e 1 34
e 1 35
e 1 38
e 1 39
e 1 41
e 1 50
e 2 3
e 2 6
e 2 7
e 2 8
e 2 9
e 2 10
e 2 13
e 2 14
e 2 21
e 2 22
e 2 28
e 2 32
e 2 34
e 2 36
e 2 38
e 2 39
e 2 42
e 2 44
e 2 46
e 2 47
e 2 48
e 2 50
e 3 4
e 3 5
e 3 6
e 3 7
e 3 8
e 3 12
e 3 17
e 3 18
e 3 19
e 3 21
e 3 26
e 3 27
e 3 29
e 3 30
e 3 31
e 3 34
e 3 40
e 3 41
e 3 44
e 3 49
e 4 5
e 4 6
e 4 7
e 4 9
e 4 10
e 4 12
e 4 13
e 4 17
e 4 18
e 4 19
e 4 21
e 4 23
e 4 25
e 4 27
e 4 32
e 4 36
e 4 44
e 4 46
e 4 48
e 5 6
e 5 7
e 5 9
e 5 12
e 5 13
e 5 14
e 5 17
e 5 18
e 5 19
e 5 22
e 5 25
e 5 30
e 5 31
e 5 37
e 5 41
e 5 45
e 5 50
e 6 7
e 6 9
e 6 12
e 6 13
e 6 15
e 6 17
e 6 22
e 6 23
e 6 25
e 6 34
e 6 35
e 6 38
e 6 40
e 6 44
e 6 48
e 7 13
e 7 14
e 7 16
e 7 17
e 7 22
e 7 29
e 7 35
e 7 40
e 7 45
e 7 47
e 7 48
e 7 49
e 8 10
e 8 11
e 8 13
e 8 14
e 8 22
e 8 27
e 8 28
e 8 29
e 8 34
e 8 40
e 8 43
e 8 47
e 9 10
e 9 15
e 9 16
e 9 24
e 9 25
e 9 26
e 9 27
e 9 30
e 9 42
e 10 14
e 10 20
e 10 24
e 10 26
e 10 33
e 10 37
e 10 39
e 10 40
e 10 42
e 11 12
e 11 13
e 11 20
e 11 22
e 11 23
e 11 26
e 11 27
e 11 30
e 11 36
e 11 48
e 12 14
e 12 15
e 12 29
e 12 35
e 12 42
e 13 18
e 13 24
e 13 37
e 14 19
e 14 28
e 14 42
e 14 47
e 15 16
e 15 19
e 15 24
e 15 32
e 15 39
e 15 47
e 16 19
e 16 20
e 16 33
e 16 36
e 16 39
e 16 45
e 17 19
e 17 23
e 17 37
e 17 49
e 18 21
e 18 25
e 18 28
e 18 35
e 19 36
e 19 43
e 20 22
e 20 26
e 20 27
e 20 31
e 20 43
e 20 45
e 21 28
e 21 30
e 21 41
e 21 46
e 22 29
e 23 24
e 23 33
e 23 41
e 24 31
e 24 44
e 24 49
e 25 49
e 26 31
e 26 38
e 28 46
e 29 43
e 30 45
e 31 32
e 32 33
e 33 43
e 34 50
e 35 46
e 36 37
e 37 38
e 38 50
n 12 1
n 13 4
n 17 4
n 20 2
n 21 7
n 22 2
n 23 4
n 24 4
n 25 4
n 27 2
n 28 7
n 32 5
n 34 3
n 35 1
n 36 7
n 38 3
n 39 6
n 40 5
n 42 1
n 43 2
n 45 2
n 47 7
n 48 6
n 49 4
n 50 3
